qbf_easy_train/easy_4268_SAT.qdimacs
p cnf 19 43
a 8 0
e 1 2 3 4 5 6 7 9 10 11 12 13 14 15 16 17 18 19 0
-3 1 0
-3 2 0
-1 -2 3 0
7 6 0
7 4 0
-6 -4 -7 0
8 -5 0
8 -7 0
5 7 -8 0
9 4 0
9 -8 0
-4 8 -9 0
9 10 -11 0
-9 -10 -11 0
9 -10 11 0
-9 10 11 0
2 12 -13 0
-2 -12 -13 0
2 -12 13 0
-2 12 13 0
-14 6 0
-14 4 0
-6 -4 14 0
-14 -15 -16 0
14 15 -16 0
-14 15 16 0
14 -15 16 0
-13 16 -17 0
13 -16 -17 0
-13 -16 17 0
13 16 17 0
18 -11 0
18 -17 0
11 17 -18 0
-3 -18 -19 0
3 18 -19 0
-3 18 19 0
3 -18 19 0
-5 6 14 0
-1 7 -2 0
-5 7 4 0
4 14 -3 -9 0
19 0
