sat_easy_train/easy_4268_SAT.dimacs
p cnf 126 410
-3 -1 0
-3 -2 0
1 2 3 0
6 -4 0
6 -5 0
4 5 -6 0
-7 -3 0
-7 6 0
3 -6 7 0
-7 8 -9 0
7 -8 -9 0
-7 -8 9 0
7 8 9 0
11 9 0
11 -10 0
-9 10 -11 0
-10 12 -13 0
10 -12 -13 0
-10 -12 13 0
10 12 13 0
-16 -14 0
-16 15 0
14 -15 16 0
13 -16 -17 0
-13 16 -17 0
13 16 17 0
-13 -16 17 0
20 -18 0
20 -19 0
18 19 -20 0
17 20 -21 0
-17 -20 -21 0
17 -20 21 0
-17 20 21 0
22 -15 0
22 8 0
15 -8 -22 0
-23 -21 0
-23 -22 0
21 22 23 0
-25 1 0
-25 8 0
-1 -8 25 0
26 -25 0
26 -7 0
25 7 -26 0
-27 -24 0
-27 26 0
24 -26 27 0
28 27 0
28 -5 0
-27 5 -28 0
23 28 -29 0
-23 -28 -29 0
23 -28 29 0
-23 28 29 0
-30 11 0
-30 -29 0
-11 29 30 0
32 4 0
32 31 0
-4 -31 -32 0
33 -8 0
33 15 0
8 -15 -33 0
-34 32 0
-34 33 0
-32 -33 34 0
-35 19 0
-35 1 0
-19 -1 35 0
35 36 0
-35 36 0
-37 24 0
-37 5 0
-24 -5 37 0
-38 36 0
-38 37 0
-36 -37 38 0
-39 38 0
-39 19 0
-38 -19 39 0
-40 34 0
-40 39 0
-34 -39 40 0
-8 -7 -41 0
8 7 -41 0
-8 7 41 0
8 -7 41 0
12 -42 -43 0
-12 42 -43 0
12 42 43 0
-12 -42 43 0
-44 43 0
-44 -33 0
-43 33 44 0
-45 24 0
-45 -44 0
-24 44 45 0
-46 -41 0
-46 -45 0
41 45 46 0
47 -46 0
47 46 0
40 -47 -48 0
-40 47 -48 0
40 47 48 0
-40 -47 48 0
-49 30 0
-49 48 0
-30 -48 49 0
-12 35 -50 0
12 -35 -50 0
-12 -35 50 0
12 35 50 0
-51 -5 0
-51 2 0
5 -2 51 0
52 -37 0
52 -51 0
37 51 -52 0
52 -41 -53 0
-52 41 -53 0
52 41 53 0
-52 -41 53 0
16 -7 -54 0
-16 7 -54 0
16 7 54 0
-16 -7 54 0
-55 1 0
-55 54 0
-1 -54 55 0
53 55 -56 0
-53 -55 -56 0
53 -55 56 0
-53 55 56 0
-57 50 0
-57 -56 0
-50 56 57 0
-8 1 -58 0
8 -1 -58 0
-8 -1 58 0
8 1 58 0
-33 -15 -59 0
33 15 -59 0
-33 15 59 0
33 -15 59 0
-60 32 0
-60 -59 0
-32 59 60 0
-61 -58 0
-61 60 0
58 -60 61 0
-18 31 -62 0
18 -31 -62 0
-18 -31 62 0
18 31 62 0
-32 -62 -63 0
32 62 -63 0
-32 62 63 0
32 -62 63 0
-64 8 0
-64 46 0
-8 -46 64 0
-63 -64 -65 0
63 64 -65 0
-63 64 65 0
63 -64 65 0
-10 24 -66 0
10 -24 -66 0
-10 -24 66 0
10 24 66 0
-67 65 0
-67 66 0
-65 -66 67 0
-68 -61 0
-68 67 0
61 -67 68 0
-70 -69 0
-70 35 0
69 -35 70 0
72 -71 0
72 -4 0
71 4 -72 0
73 70 0
73 72 0
-70 -72 -73 0
-74 -10 0
-74 -5 0
10 5 74 0
75 -31 0
75 74 0
31 -74 -75 0
32 16 -76 0
-32 -16 -76 0
32 -16 76 0
-32 16 76 0
-77 75 0
-77 -76 0
-75 76 77 0
12 1 -78 0
-12 -1 -78 0
12 -1 78 0
-12 1 78 0
71 -33 -79 0
-71 33 -79 0
71 33 79 0
-71 -33 79 0
80 -3 0
80 -15 0
3 15 -80 0
-81 -21 0
-81 80 0
21 -80 81 0
82 81 0
82 -24 0
-81 24 -82 0
83 79 0
83 -82 0
-79 82 -83 0
-84 -78 0
-84 83 0
78 -83 84 0
-16 -33 -85 0
16 33 -85 0
-16 33 85 0
16 -33 85 0
86 -84 0
86 85 0
84 -85 -86 0
-77 -86 -87 0
77 86 -87 0
-77 86 87 0
77 -86 87 0
-88 -73 0
-88 -87 0
73 87 88 0
-89 16 0
-89 19 0
-16 -19 89 0
90 89 0
90 32 0
-89 -32 -90 0
-91 -90 0
-91 42 0
90 -42 91 0
92 88 0
92 91 0
-88 -91 -92 0
93 12 0
93 -35 0
-12 35 -93 0
94 32 0
94 79 0
-32 -79 -94 0
-93 -94 -95 0
93 94 -95 0
-93 94 95 0
93 -94 95 0
-96 15 0
-96 8 0
-15 -8 96 0
97 -96 0
97 -96 0
96 -97 0
98 -51 0
98 5 0
51 -5 -98 0
99 97 0
99 -98 0
-97 98 -99 0
-74 -100 0
74 -100 0
101 -82 0
101 71 0
82 -71 -101 0
-102 101 0
-102 -16 0
-101 16 102 0
103 -100 0
103 102 0
100 -102 -103 0
-104 99 0
-104 -103 0
-99 103 104 0
-105 -95 0
-105 104 0
95 -104 105 0
-106 17 0
-106 -44 0
-17 44 106 0
4 38 -107 0
-4 -38 -107 0
4 -38 107 0
-4 38 107 0
-108 15 0
-108 -18 0
-15 18 108 0
108 -36 -109 0
-108 36 -109 0
108 36 109 0
-108 -36 109 0
110 -107 0
110 109 0
107 -109 -110 0
-111 106 0
-111 -110 0
-106 110 111 0
112 -105 0
112 111 0
105 -111 -112 0
-113 45 0
-113 5 0
-45 -5 113 0
-114 3 0
-114 90 0
-3 -90 114 0
-115 -5 0
-115 24 0
5 -24 115 0
116 115 0
116 -59 0
-115 59 -116 0
117 80 0
117 17 0
-80 -17 -117 0
-117 -12 -118 0
117 12 -118 0
-117 12 118 0
117 -12 118 0
116 -118 -119 0
-116 118 -119 0
116 118 119 0
-116 -118 119 0
114 119 -120 0
-114 -119 -120 0
114 -119 120 0
-114 119 120 0
121 113 0
121 -120 0
-113 120 -121 0
-122 -112 0
-122 121 0
112 -121 122 0
123 92 0
123 122 0
-92 -122 -123 0
-124 -68 0
-124 -123 0
68 123 124 0
125 -57 0
125 124 0
57 -124 -125 0
126 49 0
126 -125 0
-49 125 -126 0
57 114 -96 -59 -84 -53 0
111 -63 97 64 0
104 -8 101 81 84 19 0
36 98 -107 16 34 119 0
-120 55 0
13 82 126 0
84 -28 -22 0
104 7 71 28 -90 0
-126 -123 0
-25 24 -97 119 36 0
-8 27 61 -89 46 0
-90 18 -22 55 0
-115 -66 90 73 0
88 -69 112 0
-67 119 -110 0
68 91 54 108 -76 0
-112 75 80 -6 0
118 23 -15 -62 0
-88 -63 58 0
100 -65 -106 70 -99 0
-4 25 106 -112 -49 -114 0
-122 106 -112 0
-73 78 -102 104 -21 0
81 -103 0
117 59 -89 0
12 -21 -19 98 0
106 66 -71 61 0
77 -71 -76 42 -88 10 0
89 -31 7 67 4 48 0
-125 -3 115 -46 62 -72 0
105 17 -10 25 -55 119 0
125 29 0
98 81 113 0
122 -2 6 60 -85 113 0
-50 -15 93 0
-85 13 12 -120 -109 0
90 -34 0
100 3 15 0
-85 -19 0
-76 94 -29 -48 -113 100 0
70 36 15 23 -98 0
-47 -21 0
-49 15 0
-111 24 60 1 -101 0
99 -17 112 55 -109 0
29 94 97 20 -38 0
125 -39 0
-113 -42 124 0
-56 -116 -44 0
66 -62 -121 0
81 53 115 0
40 -89 0
59 -48 7 -79 27 -116 0
126 0
